c
c start with comments
c
p cnf 39 20
-41 8 0
-23 -4 -33 0
6 -37 0
-13 -13 38 0
-20 -6 29 0
-34 -11 0
24 39 41 4 17 0
-27 -17 0
-3 11 0
40 28 -7 0
-10 -36 0
-12 -4 -15 -20 -20 0
19 35 0
39 41 -32 -5 16 -33 0
25 -21 0
5 -45 0
-18 -7 -32 0
22 42 -33 -31 0
46 32 -15 0
12 -46 2 0